CMD:
./solvers/bin/cadical --plain --no-reduce -t 1600 ./data/cnfs//rast-p06/rast-p06.42.cnf

c --- [ banner ] -------------------------------------------------------------
c 
c CaDiCaL SAT Solver
c Copyright (c) 2016-2024
c A. Biere, M. Fleury, N. Froleyks, K. Fazekas, F. Pollitt, T. Faller
c JKU Linz, University of Freiburg, TU Wien
c 
c Version 2.1.3 5296d3d2a9bf48c154ab2acb5e44625776d821bf
c g++ (Gentoo 12.3.1_p20230526 p2) 12.3.1 20230526 -Wall -Wextra -O3 -DNDEBUG
c Sat Aug 9 07:26:21 PDT 2025 Linux cedar2.int.cedar.computecanada.ca 5.14.0-362.24.2.el9_3.x86_64 x86_64
c 
c --- [ limit ] --------------------------------------------------------------
c 
c setting time limit to 1600 seconds real time (due to '-t 1600')
c 
c --- [ parsing input ] ------------------------------------------------------
c 
c reading DIMACS file from './data/cnfs//rast-p06/rast-p06.42.cnf'
c opening file to read './data/cnfs//rast-p06/rast-p06.42.cnf'
c found 'p cnf 2328398 6934657' header
c parsed 6934657 clauses in 1.01 seconds process time
c 
c --- [ options ] ------------------------------------------------------------
c 
c   --compact=false                (different from default 'true')
c   --decompose=false              (different from default 'true')
c   --deduplicate=false            (different from default 'true')
c   --elim=false                   (different from default 'true')
c   --probe=false                  (different from default 'true')
c   --reduce=false                 (different from default 'true')
c   --subsume=false                (different from default 'true')
c   --ternary=false                (different from default 'true')
c   --transred=false               (different from default 'true')
c   --vivify=false                 (different from default 'true')
c 
c --- [ solving ] ------------------------------------------------------------
c 
c time measured in process time since initialization
c 
c  seconds    reductions  redundant   irredundant
c          MB     restarts       trail         variables
c            level   conflicts       glue            remaining
c 
c *  1.01 1020  0 0   0    0    0  0% 0 6527768 2046307 88%
c {  1.44 1045  0 0   0    0    0  0% 0 6527768 2046307 88%
c i  1.47 1045 489 0   0    4    2 15% 2 6527768 2046304 88%
c i  1.47 1045 500 0   0    5    2 16% 1 6527768 2045687 88%
c i  1.49 1045 532 0   0   23   18 18% 1 6527768 2045663 88%
c i  1.49 1045 534 0   0   31   25 18% 1 6527768 2045655 88%
c i  1.49 1045 534 0   0   33   25 18% 1 6527768 2045632 88%
c i  1.49 1045 534 0   0   35   26 18% 1 6527768 2045622 88%
c i  1.49 1045 534 0   0   37   27 18% 1 6527768 2045612 88%
c i  1.49 1045 534 0   0   39   28 18% 1 6527768 2045602 88%
c i  1.50 1045 534 0   0   41   29 18% 1 6527768 2045592 88%
c i  1.50 1045 534 0   0   43   30 18% 1 6527768 2045582 88%
c i  1.50 1045 534 0   0   45   31 18% 1 6527768 2045572 88%
c i  1.50 1045 533 0   0   47   32 18% 1 6527768 2045562 88%
c i  1.50 1045 533 0   0   49   33 18% 1 6527768 2045552 88%
c i  1.50 1045 533 0   0   51   34 17% 1 6527768 2045542 88%
c i  1.50 1045 533 0   0   53   35 17% 1 6527768 2045532 88%
c i  1.50 1045 533 0   0   55   36 17% 1 6527768 2045522 88%
c i  1.50 1045 532 0   0   57   37 17% 1 6527768 2045512 88%
c i  1.50 1045 532 0   0   59   38 17% 1 6527768 2045502 88%
c 
c  seconds     reductions  redundant   irredundant
c          MB      restarts       trail         variables
c             level   conflicts       glue            remaining
c 
c i  1.50 1045 532 0   0   61   39 17% 1 6527768 2045492 88%
c i  1.50 1045 531 0   0   63   40 17% 1 6527768 2045482 88%
c i  1.50 1045 531 0   0   65   41 17% 1 6527768 2045472 88%
c i  1.51 1045 531 0   0   67   42 17% 1 6527768 2045462 88%
c i  1.51 1045 530 0   0   69   43 17% 1 6527768 2045452 88%
c i  1.51 1045 530 0   0   71   44 17% 1 6527768 2045442 88%
c i  1.51 1045 530 0   0   73   45 17% 1 6527768 2045432 88%
c i  1.51 1045 529 0   0   75   46 17% 1 6527768 2045422 88%
c i  1.51 1045 529 0   0   77   47 17% 1 6527768 2045412 88%
c i  1.51 1045 529 0   0   79   48 17% 1 6527768 2045402 88%
c i  1.51 1045 528 0   0   81   49 16% 1 6527768 2045392 88%
c i  1.51 1045 528 0   0   83   50 16% 1 6527768 2045382 88%
c i  1.51 1045 527 0   0   85   51 16% 1 6527768 2045372 88%
c i  1.51 1045 527 0   0   87   52 16% 1 6527768 2045362 88%
c i  1.51 1045 527 0   0   89   53 16% 1 6527768 2045352 88%
c i  1.52 1045 526 0   0   92   54 16% 1 6527768 2045342 88%
c i  2.77 1046 433 0  11  199  140 28% 6 6527768 2045341 88%
c i  2.78 1046 436 0  11  200  140 28% 6 6527768 2045340 88%
c i  3.80 1047 435 0  23  330  227 38% 5 6527768 2045339 88%
c i  3.80 1047 440 0  23  331  227 38% 5 6527768 2045338 88%
c 
c  seconds     reductions  redundant   irredundant
c          MB      restarts       trail         variables
c             level   conflicts       glue            remaining
c 
c i  3.81 1047 478 0  23  338  233 39% 5 6527768 2044502 88%
c }  3.85 1047 180 0 182 1000  280 24% 13 6527768 2044426 88%
c [  3.85 1047  0 0 182 1000  280  0% 0 6527768 2044426 88%
c O  3.91 1047 2898 0 182 1022  300 17% 1 6527768 2044426 88%
c i  4.34 1047 880 0 182 1091  368 15% 2 6527768 2044422 88%
c i  4.35 1047 5242 0 182 1197  457 61% 3 6527768 2044406 88%
c i  4.35 1047 5380 0 182 1204  458 62% 3 6527768 2044378 88%
c i  4.35 1047 5398 0 182 1205  458 62% 3 6527768 2044374 88%
c i  4.35 1047 5417 0 182 1206  458 62% 3 6527768 2044371 88%
c i  4.35 1047 5981 0 182 1243  491 68% 2 6527768 2044367 88%
c i  4.35 1047 6034 0 182 1247  494 69% 2 6527768 2044363 88%
c i  4.35 1047 6072 0 182 1250  496 69% 2 6527768 2044359 88%
c i  4.35 1047 6108 0 182 1253  498 69% 2 6527768 2044355 88%
c i  4.35 1047 6132 0 182 1256  498 70% 2 6527768 2044347 88%
c i  4.35 1047 6144 0 182 1257  498 70% 2 6527768 2044343 88%
c i  4.35 1047 6156 0 182 1258  498 70% 2 6527768 2044339 88%
c i  4.35 1047 6179 0 182 1260  499 70% 2 6527768 2044338 88%
c i  4.35 1047 6269 0 182 1268  505 71% 2 6527768 2044326 88%
c i  4.35 1047 6290 0 182 1270  505 71% 2 6527768 2044299 88%
c i  4.35 1047 6301 0 182 1271  505 71% 2 6527768 2044295 88%
c 
c  seconds      reductions  redundant   irredundant
c          MB       restarts       trail         variables
c             level    conflicts       glue            remaining
c 
c i  4.35 1047 6311 0 182 1272  505 72% 2 6527768 2044291 88%
c i  4.35 1047 6322 0 182 1273  505 72% 2 6527768 2044290 88%
c ]  4.39 1047 6461 0 182 1288  518 73% 2 6527768 2044282 88%
c 0  4.39 1047 6461 0 182 1288  518 73% 2 6527768 2044282 88%
c 
c --- [ result ] -------------------------------------------------------------
c 
s UNSATISFIABLE
c 
c --- [ run-time profiling ] -------------------------------------------------
c 
c process time taken by individual solving procedures
c (percentage relative to process time for solving)
c 
c         3.39  100.00% search
c         2.41   71.21% unstable
c         1.01   29.72% parse
c         0.55   16.13% stable
c         0.43   12.66% lucky
c         0.00    0.00% simplify
c   =================================
c         3.39   77.08% solve
c 
c last line shows process time for solving
c (percentage relative to total process time)
c 
c --- [ statistics ] ---------------------------------------------------------
c 
c chronological:               355        27.56 %  of conflicts
c conflicts:                  1288       380.33    per second
c decisions:                 28889      8530.61    per second
c fixed:                    281553        12.09 %  of all variables
c learned:                    1196        92.86 %  per conflict
c learned_lits:              38223       100.00 %  learned literals
c minimized:                     0         0.00 %  learned literals
c shrunken:                  17560        45.94 %  learned literals
c minishrunken:               5190        13.58 %  learned literals
c otfs:                         24         1.86 %  of conflict
c propagations:           23812806         7.03 M  per second
c rephased:                      1      1288.00    interval
c restarts:                    182         7.08    interval
c stabilizing:                   1        22.36 %  of conflicts
c subsumed:                    612         0.01 %  of all clauses
c strengthened:                 24         0.00 %  of all clauses
c 
c seconds are measured in process time for solving
c 
c --- [ resources ] ----------------------------------------------------------
c 
c total process time since initialization:         4.39    seconds
c total real time since initialization:            4.41    seconds
c maximum resident set size of process:         1045.46    MB
c 
c --- [ shutting down ] ------------------------------------------------------
c 
c exit 20
